c CNF formula
c 21 variables
c 18 clauses
c
p cnf 21 18
1 0
-1 -2 -3 0
3 4 0
3 -5 6 0
-4 -6 -7 0
7 8 0
-9 -10 0
10 11 0
-11 12 0
-12 13 0
c
10 -14 15 0
3 10 -15 16 0
7 -16 17 0
-12 -13 -17 18 0
c
-15 19 0
-11 -19 20 0
-6 -20 21 0
-18 -21 0
